p cnf 10 24
1 3 9 -10 -7 -6 -4 -2 0
1 2 5 6 7 8 -9 -3 0
1 2 3 5 10 -8 -7 -6 0
1 3 5 7 9 10 -6 -2 0
1 4 6 7 -10 -9 -8 -3 0
10 -1 0
-2 6 7 0
-6 -3 0
-5 -10 -1 0
2 10 4 0
5 -2 -9 0
-7 4 9 0
3 -1 7 0
2 6 8 -7 -5 -3 0
1 2 3 5 -10 6 -7 0
2 3 5 6 8 -7 0
8 -7 -1 0
4 5 -1 0
4 -2 0
1 3 4 5 -10 -8 -7 0
-6 -4 -9 0
-5 7 0
1 3 6 10 -2 0
8 9 2 10 0
